c FILE                  :graph_1.gr.gr
c No. of vertices       :1
c No. of edges          :0
c Max. weight           :1
c Min. weight           :1
c Min. edge             :1
c Max. edge             :3
p sp 1 0
